300
200 200
1 140 938
2 140 527
3 140 903
4 139 862
5 139 937
6 139 278
7 138 920
8 138 947
9 138 858
10 137 199
11 137 194
12 136 107
13 136 301
14 136 700
15 136 892
16 136 809
17 136 632
18 136 193
19 135 468
20 134 760
21 133 333
22 132 347
23 132 0
24 132 54
25 132 231
26 131 604
27 131 312
28 131 648
29 129 666
30 129 842
31 129 199
32 128 21
33 128 412
34 128 331
35 128 804
36 128 748
37 126 364
38 124 735
39 124 786
40 123 95
41 123 240
42 123 593
43 123 904
44 122 273
45 122 412
46 120 502
47 118 822
48 118 671
49 117 125
50 117 114
51 116 355
52 115 398
53 115 535
54 115 748
55 115 483
56 114 436
57 114 940
58 114 235
59 113 348
60 113 693
61 113 51
62 113 264
63 113 0
64 113 262
65 112 575
66 112 273
67 112 610
68 110 562
69 110 497
70 110 789
71 110 658
72 110 342
73 110 754
74 110 123
75 110 401
76 110 852
77 109 579
78 108 812
79 108 378
80 108 666
81 108 333
82 107 571
83 107 248
84 107 634
85 106 757
86 106 607
87 106 673
88 106 720
89 106 649
90 106 68
91 105 778
92 105 90
93 104 502
94 104 693
95 104 681
96 103 536
97 102 123
98 102 26
99 101 438
100 101 417
101 101 534
102 101 446
103 101 117
104 100 193
105 100 471
106 99 950
107 99 993
108 99 154
109 99 106
110 98 548
111 98 723
112 98 581
113 98 36
114 98 241
115 98 60
116 98 819
117 97 438
118 97 437
119 97 395
120 97 649
121 97 3
122 96 878
123 96 272
124 96 728
125 96 632
126 94 692
127 93 877
128 93 671
129 92 981
130 90 949
131 90 479
132 90 319
133 90 301
134 90 521
135 90 549
136 89 355
137 89 436
138 89 407
139 88 642
140 88 641
141 88 528
142 88 632
143 88 928
144 87 126
145 87 784
146 87 729
147 86 355
148 86 877
149 86 882
150 86 714
151 84 782
152 82 821
153 82 170
154 82 663
155 81 45
156 80 862
157 79 939
158 79 614
159 78 146
160 78 461
161 78 863
162 77 733
163 76 252
164 76 1
165 75 269
166 75 555
167 75 667
168 74 995
169 73 873
170 73 668
171 73 110
172 73 440
173 73 134
174 73 428
175 72 75
176 72 875
177 72 423
178 71 83
179 71 221
180 71 793
181 71 725
182 71 751
183 70 152
184 70 346
185 69 851
186 68 814
187 67 271
188 67 526
189 67 955
190 66 652
191 66 583
192 65 967
193 64 310
194 62 400
195 62 589
196 61 464
197 61 577
198 60 433
199 60 564
200 59 578
201 59 310
202 59 712
203 58 880
204 58 115
205 57 49
206 57 667
207 56 918
208 56 411
209 55 405
210 55 616
211 55 413
212 55 546
213 54 652
214 54 775
215 53 709
216 53 17
217 53 336
218 53 779
219 52 171
220 52 709
221 52 334
222 51 341
223 51 155
224 51 774
225 49 662
226 49 448
227 49 96
228 49 630
229 48 776
230 48 862
231 47 404
232 47 607
233 47 250
234 47 329
235 46 157
236 46 995
237 46 881
238 46 640
239 46 549
240 46 936
241 45 208
242 43 359
243 43 185
244 43 502
245 42 767
246 42 250
247 42 982
248 42 254
249 41 231
250 40 671
251 40 577
252 40 959
253 39 668
254 39 303
255 39 61
256 39 748
257 38 772
258 37 428
259 37 483
260 37 679
261 37 366
262 37 967
263 36 243
264 36 496
265 36 506
266 36 359
267 36 246
268 35 210
269 35 640
270 35 974
271 35 41
272 34 767
273 34 243
274 34 673
275 34 942
276 33 136
277 33 870
278 33 554
279 33 662
280 31 722
281 31 992
282 31 571
283 31 346
284 30 834
285 30 839
286 30 694
287 29 142
288 29 442
289 29 45
290 28 419
291 28 111
292 27 69
293 27 623
294 25 301
295 25 529
296 24 942
297 24 21
298 23 135
299 23 103
300 20 166
